results/filo/x-long/X-n139-k10.vrp_seed-0.out
13590	1018
