results/filo2/x-long/X-n139-k10.vrp_seed-0.vrp.sol
Route #1: 79 121 20 45 110 35 58 31 97 13 10 109
Route #2: 63 28 103 21 18 1 119 47 128 116 68 83 136 104
Route #3: 95 126 52 87 117 72 66 19 61 48 65 44 57 29
Route #4: 56 76 111 105 82 106 77 43 46 55 138 122 98
Route #5: 54 75 133 64 127 130 93 132 107 92 41 80 78 120 73
Route #6: 124 62 4 23 26 22 112 25 125 137 114 32 16
Route #7: 9 108 94 69 38 131 34 115 27 123 50 74 70 88
Route #8: 89 86 33 135 14 101 11 17 37 40 134 102 81 3
Route #9: 7 30 84 51 39 8 15 60 59 42 67 100 71 91
Route #10: 118 85 24 36 129 53 96 5 6 113 90 12 49 2 99
Cost 13590.000000